; Heap sort (using skew heaps, efficient list-to-heap conversion)
(declare-datatypes (a)
  ((list (nil) (cons (head a) (tail (list a))))))
(declare-datatypes () ((Nat (zero) (succ (p Nat)))))
(declare-datatypes ()
  ((Heap (Node (proj1-Node Heap) (proj2-Node Nat) (proj3-Node Heap))
     (Nil))))
(define-fun-rec
  toHeap
    ((x (list Nat))) (list Heap)
    (match x
      (case nil (_ nil Heap))
      (case (cons y z) (cons (Node Nil y Nil) (toHeap z)))))
(define-fun-rec
  leq
    ((x Nat) (y Nat)) Bool
    (match x
      (case zero true)
      (case (succ z)
        (match y
          (case zero false)
          (case (succ x2) (leq z x2))))))
(define-fun-rec
  insert
    ((x Nat) (y (list Nat))) (list Nat)
    (match y
      (case nil (cons x (_ nil Nat)))
      (case (cons z xs)
        (ite (leq x z) (cons x y) (cons z (insert x xs))))))
(define-fun-rec
  isort
    ((x (list Nat))) (list Nat)
    (match x
      (case nil (_ nil Nat))
      (case (cons y xs) (insert y (isort xs)))))
(define-fun-rec
  hmerge
    ((x Heap) (y Heap)) Heap
    (match x
      (case (Node z x2 x3)
        (match y
          (case (Node x4 x5 x6)
            (ite
              (leq x2 x5) (Node (hmerge x3 y) x2 z) (Node (hmerge x x6) x5 x4)))
          (case Nil x)))
      (case Nil y)))
(define-fun-rec
  hpairwise
    ((x (list Heap))) (list Heap)
    (match x
      (case nil (_ nil Heap))
      (case (cons q y)
        (match y
          (case nil (cons q (_ nil Heap)))
          (case (cons r qs) (cons (hmerge q r) (hpairwise qs)))))))
(define-fun-rec
  hmerging
    ((x (list Heap))) Heap
    (match x
      (case nil Nil)
      (case (cons q y)
        (match y
          (case nil q)
          (case (cons z x2) (hmerging (hpairwise x)))))))
(define-fun toHeap2 ((x (list Nat))) Heap (hmerging (toHeap x)))
(define-fun-rec
  toList
    ((x Heap)) (list Nat)
    (match x
      (case (Node q y r) (cons y (toList (hmerge q r))))
      (case Nil (_ nil Nat))))
(define-fun hsort ((x (list Nat))) (list Nat) (toList (toHeap2 x)))
(prove (forall ((xs (list Nat))) (= (hsort xs) (isort xs))))
